\ENCODING=ISO-8859-1
\Problem name: IloCplex

Minimize
 obj1: 1000000 y0 + 1000000 y1 + 1000000 y2 + 1000000 y3 + 1000000 y4
       + 1000000 y5 + 1000000 y6 + 1000000 y7 + 1000000 y8 + 1000000 y9
       + 1000000 y10 + 1000000 y11 + 1000000 y12 + 1000000 y13 + 1000000 y14
       + 1000000 y15 + 1000000 y16 + 1000000 y17 + 1000000 y18 + 1000000 y19
       + 1000000 y20 + 1000000 y21 + 1000000 y22 + 1000000 y23 + 1000000 y24
       + 1000000 y25 + 1000000 y26 + 1000000 y27 + 1000000 y28 + 1000000 y29
       + 1000000 y30 + 1000000 y31 + 1000000 y32 + 1000000 y33 + 1000000 y34
       + 1000000 y35 + 1000000 y36 + 1000000 y37 + 1000000 y38 + 1000000 y39
       + 1000000 y40 + 1000000 y41 + 1000000 y42 + 1000000 y43 + 1000000 y44
       + 1000000 y45 + 1000000 y46 + 1000000 y47 + 1000000 y48 + 1000000 y49
       + x51 + x52 + x53 + x54 + x55 + x56 + x57 + x58 + x59 + x60 + x61 + x62
       + x63 + x64 + x65 + x66 + x67 + x68 + x69 + x70 + x71 + x72 + x73 + x74
       + x75 + x76 + x77 + x78 + x79 + x80 + x81 + x82 + x83 + x84 + x85 + x86
       + x87 + x88 + x89 + x90 + x91 + x92 + x93 + x94 + x95 + x96 + x97 + x98
       + x99 + x100 + x101 + x102 + x103 + x104 + x105 + x106 + x107 + x108
       + x109 + x110 + x111 + x112 + x113 + x114 + x115 + x116 + x117 + x118
       + x119 + x120 + x121 + x122 + x123 + x124 + x125 + x126 + x127 + x128
       + x129 + x130 + x131 + x132 + x133 + x134 + x135 + x136 + x137 + x138
Subject To
 c1:  y0 + x132  = 1
 c2:  y1 + x131  = 1
 c3:  y2 + x130  = 1
 c4:  y3 + x129  = 1
 c5:  y4 + x128  = 1
 c6:  y5 + x126  = 1
 c7:  y6 + x127  = 1
 c8:  y7 + x124  = 1
 c9:  y8 + x125  = 1
 c10: y9 + x123  = 1
 c11: y10 + x121  = 1
 c12: y11 + x122  = 1
 c13: y12 + x120  = 1
 c14: y13 + x118  = 1
 c15: y14 + x119  = 1
 c16: y15 + x117  = 1
 c17: y16 + x116  = 1
 c18: y17 + x115 + x137  = 1
 c19: y18 + x111 + x114 + x136  = 1
 c20: y19 + x109 + x110  = 1
 c21: y20 + x107 + x108 + x138  = 1
 c22: y21 + x105 + x106 + x112  = 1
 c23: y22 + x101 + x104  = 1
 c24: y23 + x92 + x94 + x99 + x102  = 1
 c25: y24 + x95 + x100 + x103  = 1
 c26: y25 + x88 + x90 + x98 + x134  = 1
 c27: y26 + x89 + x91 + x93  = 1
 c28: y27 + x84 + x87  = 1
 c29: y28 + x83 + x85 + x86  = 1
 c30: y29 + x80 + x81 + x85  = 1
 c31: y30 + x83 + x84  = 1
 c32: y31 + x75 + x78 + x81 + x87 + x135  = 1
 c33: y32 + x75 + x80 + x86 + x133  = 1
 c34: y33 + x72 + x73 + x74 + x82 + x96 + x97 + x113 + x133 + x135  = 1
 c35: y34 + x71 + x72 + x76 + x88 + x91  = 1
 c36: y35 + x67 + x68 + x69 + x82 + x99 + x100 + x101  = 1
 c37: y36 + x69 + x70 + x71 + x77 + x89 + x92 + x95  = 1
 c38: y37 + x65 + x66 + x67 + x74 + x79 + x90 + x94 + x104 + x138  = 1
 c39: y38 + x62 + x63 + x64 + x65 + x66 + x70 + x79 + x82 + x96 + x98 + x109
       = 1
 c40: y39 + x60 + x61 + x62 + x63 + x64 + x67 + x93 + x102 + x113  = 1
 c41: y40 + x56 + x58 + x59 + x61 + x62 + x68 + x71 + x78 + x96 + x106 + x110
      + x134  = 1
 c42: y41 + x54 + x55 + x56 + x57 + x58 + x59 + x60 + x63 + x69 + x78 + x79
      + x97 + x105 + x111 + x137  = 1
 c43: y42 + x51 + x52 + x53 + x54 + x55 + x57 + x58 + x60 + x62 + x68 + x73
      + x76 + x77 + x79 + x102  = 1
 c44: y43 + x51 + x52 + x53 + x54 + x55 + x56 + x60 + x61 + x63 + x66 + x68
      + x73 + x76 + x103 + x107 + x136  = 1
 c45: y44 + x51 + x52 + x53 + x54 + x55 + x56 + x57 + x59 + x62 + x64 + x70
      + x74 + x76 + x93 + x108 + x136  = 1
 c46: y45 + x51 + x52 + x53 + x54 + x55 + x56 + x57 + x58 + x61 + x64 + x65
      + x70 + x73 + x75 + x97 + x135  = 1
 c47: y46 + x51 + x52 + x53 + x54 + x58 + x59 + x61 + x64 + x66 + x70 + x72
      + x77 + x80 + x97 + x112  = 1
 c48: y47 + x51 + x52 + x53 + x55 + x57 + x59 + x60 + x63 + x65 + x68 + x74
      + x77 + x96 + x97 + x112 + x113 + x134  = 1
 c49: y48 + x51 + x52 + x56 + x57 + x58 + x60 + x63 + x64 + x66 + x73 + x76
      + x77 + x78 + x106 + x113 + x134  = 1
 c50: y49 + x51 + x56 + x59 + x60 + x61 + x64 + x65 + x66 + x69 + x81 + x90
      + x94 + x109  = 1
End
